(set-logic QF_LRA)
(declare-fun X0 () Real )
(declare-fun Y0 () Real )
(declare-fun X1 () Real )
(declare-fun Y1 () Real )
(declare-fun X2 () Real )
(declare-fun Y2 () Real )
(declare-fun X3 () Real )
(declare-fun Y3 () Real )
(declare-fun X4 () Real )
(declare-fun Y4 () Real )
(declare-fun X5 () Real )
(declare-fun Y5 () Real )
(declare-fun X6 () Real )
(declare-fun Y6 () Real )
(declare-fun X7 () Real )
(declare-fun Y7 () Real )
(declare-fun X8 () Real )
(declare-fun Y8 () Real )
(declare-fun Z () Real )
(assert ( and  
( or ( <= ( + X0 56 ) X1 )  ( <= ( + X1 16 ) X0 )  ( <= ( + Y0 88 ) Y1 )  ( <= ( + Y1 26 ) Y0 )  )
( or ( <= ( + X0 56 ) X2 )  ( <= ( + X2 14 ) X0 )  ( <= ( + Y0 88 ) Y2 )  ( <= ( + Y2 14 ) Y0 )  )
( or ( <= ( + X0 56 ) X3 )  ( <= ( + X3 51 ) X0 )  ( <= ( + Y0 88 ) Y3 )  ( <= ( + Y3 99 ) Y0 )  )
( or ( <= ( + X0 56 ) X4 )  ( <= ( + X4 17 ) X0 )  ( <= ( + Y0 88 ) Y4 )  ( <= ( + Y4 88 ) Y0 )  )
( or ( <= ( + X0 56 ) X5 )  ( <= ( + X5 79 ) X0 )  ( <= ( + Y0 88 ) Y5 )  ( <= ( + Y5 47 ) Y0 )  )
( or ( <= ( + X0 56 ) X6 )  ( <= ( + X6 97 ) X0 )  ( <= ( + Y0 88 ) Y6 )  ( <= ( + Y6 14 ) Y0 )  )
( or ( <= ( + X0 56 ) X7 )  ( <= ( + X7 95 ) X0 )  ( <= ( + Y0 88 ) Y7 )  ( <= ( + Y7 19 ) Y0 )  )
( or ( <= ( + X0 56 ) X8 )  ( <= ( + X8 67 ) X0 )  ( <= ( + Y0 88 ) Y8 )  ( <= ( + Y8 87 ) Y0 )  )
( or ( <= ( + X1 16 ) X2 )  ( <= ( + X2 14 ) X1 )  ( <= ( + Y1 26 ) Y2 )  ( <= ( + Y2 14 ) Y1 )  )
( or ( <= ( + X1 16 ) X3 )  ( <= ( + X3 51 ) X1 )  ( <= ( + Y1 26 ) Y3 )  ( <= ( + Y3 99 ) Y1 )  )
( or ( <= ( + X1 16 ) X4 )  ( <= ( + X4 17 ) X1 )  ( <= ( + Y1 26 ) Y4 )  ( <= ( + Y4 88 ) Y1 )  )
( or ( <= ( + X1 16 ) X5 )  ( <= ( + X5 79 ) X1 )  ( <= ( + Y1 26 ) Y5 )  ( <= ( + Y5 47 ) Y1 )  )
( or ( <= ( + X1 16 ) X6 )  ( <= ( + X6 97 ) X1 )  ( <= ( + Y1 26 ) Y6 )  ( <= ( + Y6 14 ) Y1 )  )
( or ( <= ( + X1 16 ) X7 )  ( <= ( + X7 95 ) X1 )  ( <= ( + Y1 26 ) Y7 )  ( <= ( + Y7 19 ) Y1 )  )
( or ( <= ( + X1 16 ) X8 )  ( <= ( + X8 67 ) X1 )  ( <= ( + Y1 26 ) Y8 )  ( <= ( + Y8 87 ) Y1 )  )
( or ( <= ( + X2 14 ) X3 )  ( <= ( + X3 51 ) X2 )  ( <= ( + Y2 14 ) Y3 )  ( <= ( + Y3 99 ) Y2 )  )
( or ( <= ( + X2 14 ) X4 )  ( <= ( + X4 17 ) X2 )  ( <= ( + Y2 14 ) Y4 )  ( <= ( + Y4 88 ) Y2 )  )
( or ( <= ( + X2 14 ) X5 )  ( <= ( + X5 79 ) X2 )  ( <= ( + Y2 14 ) Y5 )  ( <= ( + Y5 47 ) Y2 )  )
( or ( <= ( + X2 14 ) X6 )  ( <= ( + X6 97 ) X2 )  ( <= ( + Y2 14 ) Y6 )  ( <= ( + Y6 14 ) Y2 )  )
( or ( <= ( + X2 14 ) X7 )  ( <= ( + X7 95 ) X2 )  ( <= ( + Y2 14 ) Y7 )  ( <= ( + Y7 19 ) Y2 )  )
( or ( <= ( + X2 14 ) X8 )  ( <= ( + X8 67 ) X2 )  ( <= ( + Y2 14 ) Y8 )  ( <= ( + Y8 87 ) Y2 )  )
( or ( <= ( + X3 51 ) X4 )  ( <= ( + X4 17 ) X3 )  ( <= ( + Y3 99 ) Y4 )  ( <= ( + Y4 88 ) Y3 )  )
( or ( <= ( + X3 51 ) X5 )  ( <= ( + X5 79 ) X3 )  ( <= ( + Y3 99 ) Y5 )  ( <= ( + Y5 47 ) Y3 )  )
( or ( <= ( + X3 51 ) X6 )  ( <= ( + X6 97 ) X3 )  ( <= ( + Y3 99 ) Y6 )  ( <= ( + Y6 14 ) Y3 )  )
( or ( <= ( + X3 51 ) X7 )  ( <= ( + X7 95 ) X3 )  ( <= ( + Y3 99 ) Y7 )  ( <= ( + Y7 19 ) Y3 )  )
( or ( <= ( + X3 51 ) X8 )  ( <= ( + X8 67 ) X3 )  ( <= ( + Y3 99 ) Y8 )  ( <= ( + Y8 87 ) Y3 )  )
( or ( <= ( + X4 17 ) X5 )  ( <= ( + X5 79 ) X4 )  ( <= ( + Y4 88 ) Y5 )  ( <= ( + Y5 47 ) Y4 )  )
( or ( <= ( + X4 17 ) X6 )  ( <= ( + X6 97 ) X4 )  ( <= ( + Y4 88 ) Y6 )  ( <= ( + Y6 14 ) Y4 )  )
( or ( <= ( + X4 17 ) X7 )  ( <= ( + X7 95 ) X4 )  ( <= ( + Y4 88 ) Y7 )  ( <= ( + Y7 19 ) Y4 )  )
( or ( <= ( + X4 17 ) X8 )  ( <= ( + X8 67 ) X4 )  ( <= ( + Y4 88 ) Y8 )  ( <= ( + Y8 87 ) Y4 )  )
( or ( <= ( + X5 79 ) X6 )  ( <= ( + X6 97 ) X5 )  ( <= ( + Y5 47 ) Y6 )  ( <= ( + Y6 14 ) Y5 )  )
( or ( <= ( + X5 79 ) X7 )  ( <= ( + X7 95 ) X5 )  ( <= ( + Y5 47 ) Y7 )  ( <= ( + Y7 19 ) Y5 )  )
( or ( <= ( + X5 79 ) X8 )  ( <= ( + X8 67 ) X5 )  ( <= ( + Y5 47 ) Y8 )  ( <= ( + Y8 87 ) Y5 )  )
( or ( <= ( + X6 97 ) X7 )  ( <= ( + X7 95 ) X6 )  ( <= ( + Y6 14 ) Y7 )  ( <= ( + Y7 19 ) Y6 )  )
( or ( <= ( + X6 97 ) X8 )  ( <= ( + X8 67 ) X6 )  ( <= ( + Y6 14 ) Y8 )  ( <= ( + Y8 87 ) Y6 )  )
( or ( <= ( + X7 95 ) X8 )  ( <= ( + X8 67 ) X7 )  ( <= ( + Y7 19 ) Y8 )  ( <= ( + Y8 87 ) Y7 )  )
( >= X0 0)
( <= ( + X0 56) Z)
( >= Y0 0)
( <= ( + Y0 88 ) 100)
( >= X1 0)
( <= ( + X1 16) Z)
( >= Y1 0)
( <= ( + Y1 26 ) 100)
( >= X2 0)
( <= ( + X2 14) Z)
( >= Y2 0)
( <= ( + Y2 14 ) 100)
( >= X3 0)
( <= ( + X3 51) Z)
( >= Y3 0)
( <= ( + Y3 99 ) 100)
( >= X4 0)
( <= ( + X4 17) Z)
( >= Y4 0)
( <= ( + Y4 88 ) 100)
( >= X5 0)
( <= ( + X5 79) Z)
( >= Y5 0)
( <= ( + Y5 47 ) 100)
( >= X6 0)
( <= ( + X6 97) Z)
( >= Y6 0)
( <= ( + Y6 14 ) 100)
( >= X7 0)
( <= ( + X7 95) Z)
( >= Y7 0)
( <= ( + Y7 19 ) 100)
( >= X8 0)
( <= ( + X8 67) Z)
( >= Y8 0)
( <= ( + Y8 87 ) 100)
) )
(minimize Z)
(check-sat)
